164 41 56 62 131 116 36 199 61 65 118 194 19 40 44 200 191 57 90 142 141 145 17 37 149 83 93 82 96 127 50 148 99 86 171 87 163 
23 67 60 74 34 100 179 95 167 48 184 63 94 51 195 120 172 102 68 105 176 125 186 58 16 64 173 5 156 111 110 188 108 182 54 25 153 169 80 52 39 1 
18 183 168 8 197 152 139 117 35 137 177 128 32 170 165 66 147 29 122 138 159 185 160 106 28 76 2 109 30 20 10 53 46 154 126 85 115 72 
181 45 192 33 26 161 91 151 21 150 78 146 193 38 14 196 124 166 123 198 130 174 70 98 189 113 12 42 136 24 114 112 175 97 140 
77 143 119 73 79 6 103 88 43 15 134 178 27 13 75 158 129 49 7 101 55 22 121 190 
4 47 31 71 162 92 132 104 59 3 144 180 157 89 84 187 155 
135 11 133 81 9 69 107 

